************************************************************************
file with basedata            : j60_39.bas
initial value random generator: 2007063744
************************************************************************
projects                      :  1
jobs (incl. supersource/sink ):  62
horizon                       :  308
RESOURCES
  - renewable                 :  4   R
  - nonrenewable              :  0   N
  - doubly constrained        :  0   D
************************************************************************
PROJECT INFORMATION:
pronr.  #jobs rel.date duedate tardcost  MPM-Time
    1     60      0       64       57       64
************************************************************************
PRECEDENCE RELATIONS:
jobnr.    #modes  #successors   successors
   1        1          3           2   3   4
   2        1          2          17  25
   3        1          2           6  14
   4        1          3           5   7   8
   5        1          3          10  14  40
   6        1          3           9  11  18
   7        1          1          22
   8        1          3          13  19  21
   9        1          1          56
  10        1          2          12  27
  11        1          3          36  43  49
  12        1          3          15  22  34
  13        1          1          14
  14        1          2          28  49
  15        1          3          16  45  58
  16        1          2          50  56
  17        1          3          23  33  40
  18        1          2          37  57
  19        1          3          20  24  56
  20        1          2          30  32
  21        1          2          37  42
  22        1          2          47  50
  23        1          3          26  38  42
  24        1          2          25  46
  25        1          1          32
  26        1          3          36  51  52
  27        1          3          29  34  43
  28        1          1          33
  29        1          3          31  50  60
  30        1          3          36  37  40
  31        1          1          57
  32        1          1          33
  33        1          3          35  39  52
  34        1          2          39  51
  35        1          2          38  58
  36        1          1          48
  37        1          2          43  44
  38        1          2          53  54
  39        1          2          44  53
  40        1          1          41
  41        1          2          44  48
  42        1          1          52
  43        1          1          59
  44        1          2          58  60
  45        1          1          51
  46        1          2          48  55
  47        1          1          49
  48        1          1          57
  49        1          1          54
  50        1          1          53
  51        1          1          55
  52        1          1          54
  53        1          1          61
  54        1          2          55  59
  55        1          1          60
  56        1          1          61
  57        1          1          59
  58        1          1          61
  59        1          1          62
  60        1          1          62
  61        1          1          62
  62        1          0        
************************************************************************
REQUESTS/DURATIONS:
jobnr. mode duration  R 1  R 2  R 3  R 4
------------------------------------------------------------------------
  1      1     0       0    0    0    0
  2      1     4       5    0    0    7
  3      1     3       0    0    4    3
  4      1     5       7    0    5    0
  5      1     6       0    9    0    7
  6      1     3       3    0    7    2
  7      1     5       0    9    1    9
  8      1     5       2    0    3    0
  9      1     4       0    7    0    6
 10      1     7       0    0    0   10
 11      1     2       0    0    0    6
 12      1     8       0    8    0    0
 13      1     8       0    0    5    7
 14      1     3       0    1    5    9
 15      1     6       0    2    0    0
 16      1     9       1   10    1    0
 17      1    10       0    0    0    3
 18      1     3       0    9    2    5
 19      1     2       0    8    1    0
 20      1     8       7    1    4    0
 21      1     4       0    3    7    0
 22      1     9       1   10    0    0
 23      1     8       0   10    0    0
 24      1     9       0   10    8    4
 25      1     2      10    0    0    0
 26      1     1       0    5    0    8
 27      1     4       9    0    0    8
 28      1     1       6    4    3    0
 29      1     1       2   10    5    0
 30      1     4       0    0    6    7
 31      1     9       1    6    8    0
 32      1     8       9    0    0    2
 33      1     1       6    4    0    0
 34      1     9       3    2    0    0
 35      1     5       0    5    0    8
 36      1     4       0    1    0    0
 37      1     9       3    0    8    0
 38      1     3       0    0    7    0
 39      1     2       6   10    5    0
 40      1     4       0    0    0    2
 41      1     4       0   10    9    0
 42      1     6       0    1    0    0
 43      1    10       9    0    0    1
 44      1     2      10    0    0    0
 45      1     6       0    5    1    0
 46      1     4       6    1    0    0
 47      1     7       3    0    0    0
 48      1     4       0    2    0    1
 49      1     6       0    0    9    7
 50      1     2       0    1    8    0
 51      1    10       0    3    0    8
 52      1     1       0    0    5    0
 53      1     1       8   10    7    1
 54      1     6       0    0    7    7
 55      1     3       4    9    2    0
 56      1     3       9    0    9    1
 57      1    10       0    8    1    0
 58      1     6       6    0    7    4
 59      1    10       0    4    0   10
 60      1     2       0    0    6    0
 61      1     7       6    8    0    0
 62      1     0       0    0    0    0
************************************************************************
RESOURCEAVAILABILITIES:
  R 1  R 2  R 3  R 4
   25   30   27   28
************************************************************************
Job	#risk	Type	VL	mu	sigma	Type	VL	mu	sigma
2	1	8	0.05	10	0.5
3	1	1	0.1	1.25	0.125
5	2	1	0.05	1.25	0.0625	4	0.1	5	0.5
6	1	7	0.2	8.75	1.75
9	2	7	0.2	8.75	1.75	8	0.1	10	1
14	2	3	0.1	3.75	0.375	7	0.1	8.75	0.875
20	2	3	0.2	3.75	0.75	8	0.2	10	2
25	1	8	0.2	10	2
26	1	7	0.2	8.75	1.75
30	1	4	0.1	5	0.5
34	1	6	0.2	7.5	1.5
40	2	3	0.1	3.75	0.375	5	0.05	6.25	0.3125
42	1	5	0.1	6.25	0.625
46	2	4	0.1	5	0.5	8	0.05	10	0.5
51	1	7	0.1	8.75	0.875
55	1	3	0.2	3.75	0.75
57	1	8	0.1	10	1
59	2	3	0.2	3.75	0.75	5	0.1	6.25	0.625
